p cnf 36 95
-1 -27 -6 0
1 -27 6 0
-6 -28 -11 0
6 -28 11 0
-11 -29 -16 0
11 -29 16 0
-16 -30 -21 0
16 -30 21 0
-21 -31 -26 0
21 -31 26 0
-1 -32 6 0
1 -32 -6 0
-6 -33 11 0
6 -33 -11 0
-11 -34 16 0
11 -34 -16 0
-16 -35 21 0
16 -35 -21 0
-21 -36 26 0
21 -36 -26 0
-1 -27 2 0
-2 1 0
-2 27 0
1 -32 3 0
-3 -1 0
-3 32 0
2 3 -1 6 0
1 -27 4 0
-4 -1 0
-4 27 0
-1 -32 5 0
-5 1 0
-5 32 0
4 5 1 -6 0
-6 -28 7 0
-7 6 0
-7 28 0
6 -33 8 0
-8 -6 0
-8 33 0
7 8 -6 11 0
6 -28 9 0
-9 -6 0
-9 28 0
-6 -33 10 0
-10 6 0
-10 33 0
9 10 6 -11 0
-11 -29 12 0
-12 11 0
-12 29 0
11 -34 13 0
-13 -11 0
-13 34 0
12 13 -11 16 0
11 -29 14 0
-14 -11 0
-14 29 0
-11 -34 15 0
-15 11 0
-15 34 0
14 15 11 -16 0
-16 -30 17 0
-17 16 0
-17 30 0
16 -35 18 0
-18 -16 0
-18 35 0
17 18 -16 21 0
16 -30 19 0
-19 -16 0
-19 30 0
-16 -35 20 0
-20 16 0
-20 35 0
19 20 16 -21 0
-21 -31 22 0
-22 21 0
-22 31 0
21 -36 23 0
-23 -21 0
-23 36 0
22 23 -21 26 0
21 -31 24 0
-24 -21 0
-24 31 0
-21 -36 25 0
-25 21 0
-25 36 0
24 25 21 -26 0
-27 -32 0
-28 -33 0
-29 -34 0
-30 -35 0
-31 -36 0
